c Sudoku solution
p cnf 729 0
216 0
255 0
284 0
348 0
354 0
372 0
389 0
438 0
492 0
511 0
529 0
635 0
668 0
679 0
691 0
753 0
766 0
396 0
837 0
842 0
871 0
181 0
921 0
741 0
451 0
978 0
858 0
588 0
982 0
886 0
936 0
995 0
893 0
787 0
774 0
799 0
732 0
913 0
819 0
824 0
865 0
594 0
533 0
331 0
239 0
134 0
261 0
222 0
298 0
612 0
414 0
644 0
683 0
964 0
485 0
545 0
175 0
273 0
197 0
118 0
123 0
247 0
363 0
317 0
325 0
715 0
728 0
443 0
469 0
146 0
949 0
957 0
656 0
552 0
567 0
576 0
477 0
426 0
627 0
159 0
162 0
